# set
set V := C1 C2 C3 C4 C5 ;
set F := F6 F7 F8 F9 F6_1 F6_2 F7_1 F7_2 F8_1 F8_2 F9_1 F9_2 ;
set D0 := N0;
set Dσ := Nσ;

# param
param Cf := 200;		# ECV fixed cost
param C := 1000;		# ECV max load
param Q := 77.75;		# ECV/BSV battery level
param h := 1;		# ECV consumption

param CB := 60;		# BSV fixed cost
param Qplun := 5;		# BSV max load
param hplun := 1;		# BSV consumption
param W := 155.5;		# BSV battery level

param Cde := 1;		# ECV cost per unit distance
param Cdb := 1;		# BSV cost per unit distance
param lamda := 0;	# battery swap time
param n := 5;		# number of customers
param g := 1.17;	# recharging rate
param Cr := 100;		# recharging cost
param Ct := 10;		# travel cost
param Cs ;		# battery swap cost

param m :=
N0 0
C1 30
C2 40
C3 10
C4 40
C5 10
F6 0
F6_1 0
F6_2 0
F7 0
F7_1 0
F7_2 0
F8 0
F8_1 0
F8_2 0
F9 0
F9_1 0
F9_2 0
Nσ 0
;

param e :=
N0 0
C1 201
C2 0
C3 0
C4 644
C5 0
F6 0
F6_1 0
F6_2 0
F7 0
F7_1 0
F7_2 0
F8 0
F8_1 0
F8_2 0
F9 0
F9_1 0
F9_2 0
Nσ 0
;

param l :=
N0 960
C1 321
C2 909
C3 911
C4 764
C5 937
F6 960
F6_1 960
F6_2 960
F7 960
F7_1 960
F7_2 960
F8 960
F8_1 960
F8_2 960
F9 960
F9_1 960
F9_2 960
Nσ 960
;

param s :=
N0 0
C1 10
C2 10
C3 10
C4 10
C5 10
F6 0
F6_1 0
F6_2 0
F7 0
F7_1 0
F7_2 0
F8 0
F8_1 0
F8_2 0
F9 0
F9_1 0
F9_2 0
Nσ 0
;

param d : N0 C1 C2 C3 C4 C5 F6 F6_1 F6_2 F7 F7_1 F7_2 F8 F8_1 F8_2 F9 F9_1 F9_2 Nσ  :=
N0 0.0000 45.0444 40.0500 38.0526 36.0555 12.0416 0.0000 0.0000 0.0000 27.5136 27.5136 27.5136 24.0832 24.0832 24.0832 24.0208 24.0208 24.0208 0.0000
C1 45.0444 0.0000 6.4031 8.0623 77.1298 54.1295 45.0444 45.0444 45.0444 59.0931 59.0931 59.0931 33.1210 33.1210 33.1210 21.0238 21.0238 21.0238 45.0444
C2 40.0500 6.4031 0.0000 2.0000 73.3757 48.5077 40.0500 40.0500 40.0500 56.4358 56.4358 56.4358 31.2410 31.2410 31.2410 16.2788 16.2788 16.2788 40.0500
C3 38.0526 8.0623 2.0000 0.0000 71.4703 46.5296 38.0526 38.0526 38.0526 54.7083 54.7083 54.7083 29.7321 29.7321 29.7321 14.3178 14.3178 14.3178 38.0526
C4 36.0555 77.1298 73.3757 71.4703 0.0000 36.4005 36.0555 36.0555 36.0555 21.8403 21.8403 21.8403 46.0435 46.0435 46.0435 57.2451 57.2451 57.2451 36.0555
C5 12.0416 54.1295 48.5077 46.5296 36.4005 0.0000 12.0416 12.0416 12.0416 35.0143 35.0143 35.0143 36.1248 36.1248 36.1248 33.5261 33.5261 33.5261 12.0416
F6 0.0000 45.0444 40.0500 38.0526 36.0555 12.0416 0.0000 0.0000 0.0000 27.5136 27.5136 27.5136 24.0832 24.0832 24.0832 24.0208 24.0208 24.0208 0.0000
F6_1 0.0000 45.0444 40.0500 38.0526 36.0555 12.0416 0.0000 0.0000 0.0000 27.5136 27.5136 27.5136 24.0832 24.0832 24.0832 24.0208 24.0208 24.0208 0.0000
F6_2 0.0000 45.0444 40.0500 38.0526 36.0555 12.0416 0.0000 0.0000 0.0000 27.5136 27.5136 27.5136 24.0832 24.0832 24.0832 24.0208 24.0208 24.0208 0.0000
F7 27.5136 59.0931 56.4358 54.7083 21.8403 35.0143 27.5136 27.5136 27.5136 0.0000 0.0000 0.0000 26.2488 26.2488 26.2488 41.4005 41.4005 41.4005 27.5136
F7_1 27.5136 59.0931 56.4358 54.7083 21.8403 35.0143 27.5136 27.5136 27.5136 0.0000 0.0000 0.0000 26.2488 26.2488 26.2488 41.4005 41.4005 41.4005 27.5136
F7_2 27.5136 59.0931 56.4358 54.7083 21.8403 35.0143 27.5136 27.5136 27.5136 0.0000 0.0000 0.0000 26.2488 26.2488 26.2488 41.4005 41.4005 41.4005 27.5136
F8 24.0832 33.1210 31.2410 29.7321 46.0435 36.1248 24.0832 24.0832 24.0832 26.2488 26.2488 26.2488 0.0000 0.0000 0.0000 18.7883 18.7883 18.7883 24.0832
F8_1 24.0832 33.1210 31.2410 29.7321 46.0435 36.1248 24.0832 24.0832 24.0832 26.2488 26.2488 26.2488 0.0000 0.0000 0.0000 18.7883 18.7883 18.7883 24.0832
F8_2 24.0832 33.1210 31.2410 29.7321 46.0435 36.1248 24.0832 24.0832 24.0832 26.2488 26.2488 26.2488 0.0000 0.0000 0.0000 18.7883 18.7883 18.7883 24.0832
F9 24.0208 21.0238 16.2788 14.3178 57.2451 33.5261 24.0208 24.0208 24.0208 41.4005 41.4005 41.4005 18.7883 18.7883 18.7883 0.0000 0.0000 0.0000 24.0208
F9_1 24.0208 21.0238 16.2788 14.3178 57.2451 33.5261 24.0208 24.0208 24.0208 41.4005 41.4005 41.4005 18.7883 18.7883 18.7883 0.0000 0.0000 0.0000 24.0208
F9_2 24.0208 21.0238 16.2788 14.3178 57.2451 33.5261 24.0208 24.0208 24.0208 41.4005 41.4005 41.4005 18.7883 18.7883 18.7883 0.0000 0.0000 0.0000 24.0208
Nσ 0.0000 45.0444 40.0500 38.0526 36.0555 12.0416 0.0000 0.0000 0.0000 27.5136 27.5136 27.5136 24.0832 24.0832 24.0832 24.0208 24.0208 24.0208 0.0000
;

param t : N0 C1 C2 C3 C4 C5 F6 F6_1 F6_2 F7 F7_1 F7_2 F8 F8_1 F8_2 F9 F9_1 F9_2 Nσ  :=
N0 0.0000 45.0444 40.0500 38.0526 36.0555 12.0416 0.0000 0.0000 0.0000 27.5136 27.5136 27.5136 24.0832 24.0832 24.0832 24.0208 24.0208 24.0208 0.0000
C1 45.0444 0.0000 6.4031 8.0623 77.1298 54.1295 45.0444 45.0444 45.0444 59.0931 59.0931 59.0931 33.1210 33.1210 33.1210 21.0238 21.0238 21.0238 45.0444
C2 40.0500 6.4031 0.0000 2.0000 73.3757 48.5077 40.0500 40.0500 40.0500 56.4358 56.4358 56.4358 31.2410 31.2410 31.2410 16.2788 16.2788 16.2788 40.0500
C3 38.0526 8.0623 2.0000 0.0000 71.4703 46.5296 38.0526 38.0526 38.0526 54.7083 54.7083 54.7083 29.7321 29.7321 29.7321 14.3178 14.3178 14.3178 38.0526
C4 36.0555 77.1298 73.3757 71.4703 0.0000 36.4005 36.0555 36.0555 36.0555 21.8403 21.8403 21.8403 46.0435 46.0435 46.0435 57.2451 57.2451 57.2451 36.0555
C5 12.0416 54.1295 48.5077 46.5296 36.4005 0.0000 12.0416 12.0416 12.0416 35.0143 35.0143 35.0143 36.1248 36.1248 36.1248 33.5261 33.5261 33.5261 12.0416
F6 0.0000 45.0444 40.0500 38.0526 36.0555 12.0416 0.0000 0.0000 0.0000 27.5136 27.5136 27.5136 24.0832 24.0832 24.0832 24.0208 24.0208 24.0208 0.0000
F6_1 0.0000 45.0444 40.0500 38.0526 36.0555 12.0416 0.0000 0.0000 0.0000 27.5136 27.5136 27.5136 24.0832 24.0832 24.0832 24.0208 24.0208 24.0208 0.0000
F6_2 0.0000 45.0444 40.0500 38.0526 36.0555 12.0416 0.0000 0.0000 0.0000 27.5136 27.5136 27.5136 24.0832 24.0832 24.0832 24.0208 24.0208 24.0208 0.0000
F7 27.5136 59.0931 56.4358 54.7083 21.8403 35.0143 27.5136 27.5136 27.5136 0.0000 0.0000 0.0000 26.2488 26.2488 26.2488 41.4005 41.4005 41.4005 27.5136
F7_1 27.5136 59.0931 56.4358 54.7083 21.8403 35.0143 27.5136 27.5136 27.5136 0.0000 0.0000 0.0000 26.2488 26.2488 26.2488 41.4005 41.4005 41.4005 27.5136
F7_2 27.5136 59.0931 56.4358 54.7083 21.8403 35.0143 27.5136 27.5136 27.5136 0.0000 0.0000 0.0000 26.2488 26.2488 26.2488 41.4005 41.4005 41.4005 27.5136
F8 24.0832 33.1210 31.2410 29.7321 46.0435 36.1248 24.0832 24.0832 24.0832 26.2488 26.2488 26.2488 0.0000 0.0000 0.0000 18.7883 18.7883 18.7883 24.0832
F8_1 24.0832 33.1210 31.2410 29.7321 46.0435 36.1248 24.0832 24.0832 24.0832 26.2488 26.2488 26.2488 0.0000 0.0000 0.0000 18.7883 18.7883 18.7883 24.0832
F8_2 24.0832 33.1210 31.2410 29.7321 46.0435 36.1248 24.0832 24.0832 24.0832 26.2488 26.2488 26.2488 0.0000 0.0000 0.0000 18.7883 18.7883 18.7883 24.0832
F9 24.0208 21.0238 16.2788 14.3178 57.2451 33.5261 24.0208 24.0208 24.0208 41.4005 41.4005 41.4005 18.7883 18.7883 18.7883 0.0000 0.0000 0.0000 24.0208
F9_1 24.0208 21.0238 16.2788 14.3178 57.2451 33.5261 24.0208 24.0208 24.0208 41.4005 41.4005 41.4005 18.7883 18.7883 18.7883 0.0000 0.0000 0.0000 24.0208
F9_2 24.0208 21.0238 16.2788 14.3178 57.2451 33.5261 24.0208 24.0208 24.0208 41.4005 41.4005 41.4005 18.7883 18.7883 18.7883 0.0000 0.0000 0.0000 24.0208
Nσ 0.0000 45.0444 40.0500 38.0526 36.0555 12.0416 0.0000 0.0000 0.0000 27.5136 27.5136 27.5136 24.0832 24.0832 24.0832 24.0208 24.0208 24.0208 0.0000
;
